Running for instance ./models/rc103.txt
Generating routes...
Execution time:  0.2622655  minutes
Academic license - for non-commercial use only
Warning: constraint name "Cliente esta na rota" has a space
Optimize a model with 26 rows, 5000 columns and 32274 nonzeros
Variable types: 0 continuous, 5000 integer (0 binary)
Coefficient statistics:
  Matrix range     [1e+00, 1e+00]
  Objective range  [7e+01, 2e+02]
  Bounds range     [1e+00, 1e+00]
  RHS range        [1e+00, 2e+01]
Found heuristic solution: objective 875.8480929
Presolve removed 0 rows and 3249 columns
Presolve time: 0.03s
Presolved: 26 rows, 1751 columns, 10493 nonzeros
Found heuristic solution: objective 635.2788158
Variable types: 0 continuous, 1751 integer (1751 binary)

Root relaxation: objective 3.665977e+02, 59 iterations, 0.00 seconds

    Nodes    |    Current Node    |     Objective Bounds      |     Work
 Expl Unexpl |  Obj  Depth IntInf | Incumbent    BestBd   Gap | It/Node Time

     0     0  366.59770    0    6  635.27882  366.59770  42.3%     -    0s
H    0     0                     434.9783459  366.59770  15.7%     -    0s
H    0     0                     419.2444062  366.59770  12.6%     -    0s
     0     0  371.39469    0    5  419.24441  371.39469  11.4%     -    0s
     0     0  371.39469    0    6  419.24441  371.39469  11.4%     -    0s
H    0     0                     416.1365496  371.39469  10.8%     -    0s
*    0     0               0     405.4638199  405.46382  0.00%     -    0s

Cutting planes:
  Gomory: 1

Explored 1 nodes (109 simplex iterations) in 0.07 seconds
Thread count was 8 (of 8 available processors)

Solution count 5: 405.464 416.137 419.244 ... 635.279

Optimal solution found (tolerance 1.00e-04)
Best objective 4.054638199217e+02, best bound 4.054638199217e+02, gap 0.0000%
11 9 10
12 15 16 17
2 7 8 6 4 5 1
24 21 23 18 19 22 25
Distance: 405.463819922
Execution time:  0.2692124  minutes
